%mem=300mb
%chk=ch3oh_dimer.chk
# B3LYP 6-31G** SCF=direct OPT FREQ
 
ch3oh
 
0 1
6       -0.859600126      2.686282176      0.000001273
1       -1.897358444      2.985376896     -0.000146518
1       -0.372776565      3.075700139      0.881906297
1       -0.372522296      3.075920508     -0.881665987
8       -0.774498784      1.248799054     -0.000184708
1        0.147927355      0.982847909     -0.000262932
6        0.145548091     -1.349459400     -0.371171589
1        1.073618061     -1.224634780     -0.909228228
1        0.199233427     -2.239775491      0.237807181
1       -0.668731234     -1.443131767     -1.074431618
8       -0.077916228     -0.203797305      0.472108947
1       -0.902930458     -0.314506564      0.950329587

 
