%mem=300mb
%chk=ch3oh_triemer.chk
#B3LYP 6-31G** SCF=direct OPT FREQ
 
ch3oh
 
0 1
6       -1.094019710      2.999383242      0.159685253
1       -1.993081389      3.527636993      0.440818801
1       -0.439111368      2.922781460      1.015037363
1       -0.592153365      3.537709066     -0.630716847
8       -1.437584544      1.679271852     -0.301692163
1       -0.635048545      1.185975400     -0.486609931
6        0.451297270     -1.745031926     -0.303326309
1        1.399938090     -1.746851583     -0.819540687
1        0.468791236     -2.483196869      0.484840220
1       -0.338673367     -1.981843969     -1.000654387
8        0.216286311     -0.442523691      0.263985023
1       -0.610976512     -0.450125900      0.750994703
6        2.457487386      1.425394766     -1.525760938
1        1.968483197      1.820653454     -0.647668987
1        3.211807800      0.712276081     -1.227662877
1        2.921573364      2.232234734     -2.073514050
8        1.484914858      0.773300621     -2.363899293
1        1.280374082      0.151737722     -1.661458808


 
