%mem=300mb
%chk=phenol_dimer.chk
# B3LYP 6-31G** SCF=direct TEST
 
phenol_dimer
 
0 1
8       -1.186158000      1.659025000     -0.394989000
1       -0.333231000      1.314368000     -0.699590000
8        0.460201000     -0.445320000      0.277437000
1       -0.392748000     -0.098889000      0.580017000
6        1.727653511     -0.960104402     -0.172186343
6        2.766497718     -1.218393387      0.737989950
6        1.960677768     -1.218393387     -1.533552519
6        3.993440312     -1.716680436      0.303080956
6        3.187403811     -1.716680436     -1.969071953
6        4.209755316     -1.968226822     -1.052701314
1        2.608832190     -1.026275965      1.794728745
1        1.172317313     -1.026275965     -2.254692654
1        4.781989891     -1.908754245      1.025095008
1        3.344665454     -1.908754245     -3.026608479
1        5.165626055     -2.356460182     -1.391792360
6       -2.453602389      2.171183228      0.057646253
6       -3.494839430      2.428154551     -0.850165696
6       -2.684225660      2.428154551      1.419670487
6       -4.721774805      2.923899586     -0.412341086
6       -3.910943196      2.923899586      1.858105078
6       -4.935688286      3.174162708      0.944059564
1       -3.339052934      2.237017216     -1.907360801
1       -1.893992235      2.237017216      2.139018845
1       -5.512199118      3.114993530     -1.132562988
1       -4.066324043      3.114993530      2.916097031
1       -5.891552899      3.560415493      1.285422092


 
